aod/lista2/zad5/police.dat
set Shifts := shift1 shift2 shift3;
set Districts := p1 p2 p3;

param min_shift :=
shift1 10
shift2 20
shift3 18;

param min_district :=
p1 10
p2 14
p3 13;

param min_cars:   # minimalne przypisanie dzielnica × zmiana
       shift1 shift2 shift3 :=
p1     2      4      3
p2     3      6      5
p3     5      7      6;

param max_cars:   # maksymalne przypisanie dzielnica × zmiana
       shift1 shift2 shift3 :=
p1     3      7      5
p2     5      7     10
p3     8     12     10;
